NAME : random71.669.tour
COMMENT : Length = 669
COMMENT : Found by LKH [Keld Helsgaun] Mon Dec 30 21:12:49 2024
TYPE : TOUR
DIMENSION : 71
TOUR_SECTION
1
11
56
14
16
27
58
32
19
35
39
71
70
66
12
65
53
68
46
50
34
37
17
18
5
2
42
43
10
25
48
28
36
23
41
38
54
26
49
21
59
45
47
3
13
4
69
62
51
24
63
61
31
15
22
6
60
57
33
55
30
9
8
67
40
64
44
52
7
29
20
-1
EOF
